50 1370
652 773 790 682 488 111 928 242 245 225 813 393 353 264 477 234 364 848 753 752 112 605 50 374 647 373 710 70 792 575 979 814 786 229 714 355 559 861 789 386 106 748 560 217 585 313 155 915 363 568 
486 586 280 337 354 936 539 954 675 696 354 17 938 58 851 355 139 454 519 4 139 134 498 13 883 110 872 246 68 685 192 834 810 211 698 415 50 131 762 893 29 144 764 532 101 593 432 880 773 646 
